N = 9;
H = 6;
T = 2;

avail = array3d(1..N, 1..H, 1..T, [4, 6, 8, 5, 9, 2, 4, 7, 8, 1, 3, 7, 2, 7, 8, 10, 5, 2, 8, 9, 5, 9, 8, 10, 1, 5, 0, 6, 5, 4, 2, 2, 1, 9, 9, 2, 7, 5, 3, 0, 1, 1, 5, 0, 3, 9, 1, 6, 8, 3, 10, 2, 6, 3, 5, 0, 8, 2, 9, 3, 6, 2, 6, 3, 10, 5, 9, 3, 3, 3, 0, 10, 9, 3, 9, 2, 0, 8, 4, 8, 10, 2, 1, 9, 5, 7, 6, 9, 1, 8, 3, 7, 8, 5, 9, 1, 8, 8, 0, 3, 3, 1, 10, 3, 10, 10, 3, 7]);

r = array2d(1..H, 1..T, [3, 2, 3, 1, 2, 2, 4, 4, 2, 2, 2, 5]);
